nK = 1681;
nT = 8;
nI = 21;
L = 35;
TT = 396;
np = 1;
nc = 3;
b = [25, 69, 36, 56, 48, 23, 44, 66, 59, 35, 59, 38, 32, 23, 34, 39, 65, 21, 20, 46, 68];
d = [71, 111, 131, 131, 134, 144, 130, 147, 112, 128, 129, 129, 79, 41, 106, 126, 142, 51, 127, 98, 128];
m = [1.6, 2.1, 1.9, 2.3, 1.9, 2.4, 2.1, 2.3, 1.2, 1.6, 2.2, 1.7, 1.1, 1.7, 1.8, 1.7, 2, 2, 1.9, 2, 1.8];
pt = [0.23, 0.35, 0.28, 0.31, 0.27, 0.31, 0.29, 0.34];
st = [9.43, 18.2, 16.8, 12.4, 14.85, 18.29, 15.95, 14.96];
arc = {<1, 0, 1, 1, 0, 0, 0, [1, 1, 1, 1, 1, 1, 1, 1]>, <2, 1, 2, 1, 0, 0, 0, [1, 1, 1, 1, 1, 1, 1, 1]>, <3, 2, 3, 1, 0, 0, 0, [1, 1, 1, 1, 1, 1, 1, 1]>, <4, 3, 4, 1, 0, 0, 0, [1, 1, 1, 1, 1, 1, 1, 1]>, <5, 4, 5, 1, 0, 0, 0, [1, 1, 1, 1, 1, 1, 1, 1]>, <6, 5, 6, 1, 0, 0, 0, [1, 1, 1, 1, 1, 1, 1, 1]>, <7, 6, 7, 1, 0, 0, 0, [1, 1, 1, 1, 1, 1, 1, 1]>, <8, 7, 8, 1, 0, 0, 0, [1, 1, 1, 1, 1, 1, 1, 1]>, <9, 8, 9, 1, 0, 0, 0, [1, 1, 1, 1, 1, 1, 1, 1]>, <10, 9, 10, 1, 0, 0, 0, [1, 1, 1, 1, 1, 1, 1, 1]>, <11, 10, 11, 1, 0, 0, 0, [1, 1, 1, 1, 1, 1, 1, 1]>, <12, 11, 12, 1, 0, 0, 0, [1, 1, 1, 1, 1, 1, 1, 1]>, <13, 12, 13, 1, 0, 0, 0, [1, 1, 1, 1, 1, 1, 1, 1]>, <14, 13, 14, 1, 0, 0, 0, [1, 1, 1, 1, 1, 1, 1, 1]>, <15, 14, 15, 1, 0, 0, 0, [1, 1, 1, 1, 1, 1, 1, 1]>, <16, 15, 16, 1, 0, 0, 0, [1, 1, 1, 1, 1, 1, 1, 1]>, <17, 16, 17, 1, 0, 0, 0, [1, 1, 1, 1, 1, 1, 1, 1]>, <18, 17, 18, 1, 0, 0, 0, [1, 1, 1, 1, 1, 1, 1, 1]>, <19, 18, 19, 1, 0, 0, 0, [1, 1, 1, 1, 1, 1, 1, 1]>, <20, 19, 20, 1, 0, 0, 0, [1, 1, 1, 1, 1, 1, 1, 1]>, <21, 20, 21, 1, 0, 0, 0, [1, 1, 1, 1, 1, 1, 1, 1]>, <22, 21, 22, 1, 0, 0, 0, [1, 1, 1, 1, 1, 1, 1, 1]>, <23, 22, 23, 1, 0, 0, 0, [1, 1, 1, 1, 1, 1, 1, 1]>, <24, 23, 24, 1, 0, 0, 0, [1, 1, 1, 1, 1, 1, 1, 1]>, <25, 24, 25, 1, 0, 0, 0, [1, 1, 1, 1, 1, 1, 1, 1]>, <26, 25, 26, 1, 0, 0, 0, [1, 1, 1, 1, 1, 1, 1, 1]>, <27, 26, 27, 1, 0, 0, 0, [1, 1, 1, 1, 1, 1, 1, 1]>, <28, 27, 28, 1, 0, 0, 0, [1, 1, 1, 1, 1, 1, 1, 1]>, <29, 28, 29, 1, 0, 0, 0, [1, 1, 1, 1, 1, 1, 1, 1]>, <30, 29, 30, 1, 0, 0, 0, [1, 1, 1, 1, 1, 1, 1, 1]>, <31, 30, 31, 1, 0, 0, 0, [1, 1, 1, 1, 1, 1, 1, 1]>, <32, 31, 32, 1, 0, 0, 0, [1, 1, 1, 1, 1, 1, 1, 1]>, <33, 32, 33, 1, 0, 0, 0, [1, 1, 1, 1, 1, 1, 1, 1]>, <34, 33, 34, 1, 0, 0, 0, [1, 1, 1, 1, 1, 1, 1, 1]>, <35, 34, 35, 1, 0, 0, 0, [1, 1, 1, 1, 1, 1, 1, 1]>, <36, 5, 14, 9, 1, 0, 1, [0, 0, 0, 0, 0, 0, 1, 1]>, <37, 6, 15, 9, 1, 0, 1, [0, 0, 0, 0, 0, 0, 1, 1]>, <38, 14, 23, 9, 1, 0, 1, [0, 0, 0, 0, 0, 0, 1, 1]>, <39, 15, 24, 9, 1, 0, 1, [0, 0, 0, 0, 0, 0, 1, 1]>, <40, 22, 31, 9, 1, 0, 1, [0, 0, 0, 0, 0, 0, 1, 1]>, <41, 23, 32, 9, 1, 0, 1, [0, 0, 0, 0, 0, 0, 1, 1]>, <42, 24, 33, 9, 1, 0, 1, [0, 0, 0, 0, 0, 0, 1, 1]>, <43, 5, 15, 10, 2, 1, 0, [1, 0, 0, 0, 0, 0, 0, 1]>, <44, 6, 16, 10, 2, 1, 0, [1, 0, 0, 0, 0, 0, 0, 1]>, <45, 14, 24, 10, 2, 1, 0, [1, 0, 0, 0, 0, 0, 0, 1]>, <46, 15, 25, 10, 2, 1, 0, [1, 0, 0, 0, 0, 0, 0, 1]>, <47, 21, 31, 10, 2, 1, 0, [1, 0, 0, 0, 0, 0, 0, 1]>, <48, 22, 32, 10, 2, 1, 0, [1, 0, 0, 0, 0, 0, 0, 1]>, <49, 23, 33, 10, 2, 1, 0, [1, 0, 0, 0, 0, 0, 0, 1]>, <50, 24, 34, 10, 2, 1, 0, [1, 0, 0, 0, 0, 0, 0, 1]>, <51, 4, 17, 13, 3, 1, 0, [1, 1, 0, 0, 0, 0, 0, 0]>, <52, 5, 18, 13, 3, 1, 0, [1, 1, 0, 0, 0, 0, 0, 0]>, <53, 6, 19, 13, 3, 1, 0, [1, 1, 0, 0, 0, 0, 0, 0]>, <54, 13, 26, 13, 3, 1, 0, [1, 1, 0, 0, 0, 0, 0, 0]>, <55, 14, 27, 13, 3, 1, 0, [1, 1, 0, 0, 0, 0, 0, 0]>, <56, 15, 28, 13, 3, 1, 0, [1, 1, 0, 0, 0, 0, 0, 0]>, <57, 18, 31, 13, 3, 1, 0, [1, 1, 0, 0, 0, 0, 0, 0]>, <58, 19, 32, 13, 3, 1, 0, [1, 1, 0, 0, 0, 0, 0, 0]>, <59, 20, 33, 13, 3, 1, 0, [1, 1, 0, 0, 0, 0, 0, 0]>, <60, 21, 34, 13, 3, 1, 0, [1, 1, 0, 0, 0, 0, 0, 0]>, <61, 22, 35, 13, 3, 1, 0, [1, 1, 0, 0, 0, 0, 0, 0]>, <62, 4, 17, 13, 4, 0, 0, [0, 0, 0, 0, 1, 1, 0, 0]>, <63, 5, 18, 13, 4, 0, 0, [0, 0, 0, 0, 1, 1, 0, 0]>, <64, 6, 19, 13, 4, 0, 0, [0, 0, 0, 0, 1, 1, 0, 0]>, <65, 13, 26, 13, 4, 0, 0, [0, 0, 0, 0, 1, 1, 0, 0]>, <66, 14, 27, 13, 4, 0, 0, [0, 0, 0, 0, 1, 1, 0, 0]>, <67, 15, 28, 13, 4, 0, 0, [0, 0, 0, 0, 1, 1, 0, 0]>, <68, 18, 31, 13, 4, 0, 0, [0, 0, 0, 0, 1, 1, 0, 0]>, <69, 19, 32, 13, 4, 0, 0, [0, 0, 0, 0, 1, 1, 0, 0]>, <70, 20, 33, 13, 4, 0, 0, [0, 0, 0, 0, 1, 1, 0, 0]>, <71, 21, 34, 13, 4, 0, 0, [0, 0, 0, 0, 1, 1, 0, 0]>, <72, 22, 35, 13, 4, 0, 0, [0, 0, 0, 0, 1, 1, 0, 0]>, <73, 5, 17, 12, 5, 0, 1, [0, 0, 0, 0, 1, 1, 0, 0]>, <74, 6, 18, 12, 5, 0, 1, [0, 0, 0, 0, 1, 1, 0, 0]>, <75, 14, 26, 12, 5, 0, 1, [0, 0, 0, 0, 1, 1, 0, 0]>, <76, 15, 27, 12, 5, 0, 1, [0, 0, 0, 0, 1, 1, 0, 0]>, <77, 19, 31, 12, 5, 0, 1, [0, 0, 0, 0, 1, 1, 0, 0]>, <78, 20, 32, 12, 5, 0, 1, [0, 0, 0, 0, 1, 1, 0, 0]>, <79, 21, 33, 12, 5, 0, 1, [0, 0, 0, 0, 1, 1, 0, 0]>, <80, 22, 34, 12, 5, 0, 1, [0, 0, 0, 0, 1, 1, 0, 0]>, <81, 23, 35, 12, 5, 0, 1, [0, 0, 0, 0, 1, 1, 0, 0]>, <82, 2, 17, 15, 6, 0, 0, [0, 0, 0, 0, 0, 1, 1, 0]>, <83, 3, 18, 15, 6, 0, 0, [0, 0, 0, 0, 0, 1, 1, 0]>, <84, 4, 19, 15, 6, 0, 0, [0, 0, 0, 0, 0, 1, 1, 0]>, <85, 5, 20, 15, 6, 0, 0, [0, 0, 0, 0, 0, 1, 1, 0]>, <86, 6, 21, 15, 6, 0, 0, [0, 0, 0, 0, 0, 1, 1, 0]>, <87, 11, 26, 15, 6, 0, 0, [0, 0, 0, 0, 0, 1, 1, 0]>, <88, 12, 27, 15, 6, 0, 0, [0, 0, 0, 0, 0, 1, 1, 0]>, <89, 13, 28, 15, 6, 0, 0, [0, 0, 0, 0, 0, 1, 1, 0]>, <90, 14, 29, 15, 6, 0, 0, [0, 0, 0, 0, 0, 1, 1, 0]>, <91, 15, 30, 15, 6, 0, 0, [0, 0, 0, 0, 0, 1, 1, 0]>, <92, 16, 31, 15, 6, 0, 0, [0, 0, 0, 0, 0, 1, 1, 0]>, <93, 17, 32, 15, 6, 0, 0, [0, 0, 0, 0, 0, 1, 1, 0]>, <94, 18, 33, 15, 6, 0, 0, [0, 0, 0, 0, 0, 1, 1, 0]>, <95, 19, 34, 15, 6, 0, 0, [0, 0, 0, 0, 0, 1, 1, 0]>, <96, 20, 35, 15, 6, 0, 0, [0, 0, 0, 0, 0, 1, 1, 0]>, <97, 5, 16, 11, 7, 0, 1, [1, 1, 0, 0, 0, 0, 0, 0]>, <98, 6, 17, 11, 7, 0, 1, [1, 1, 0, 0, 0, 0, 0, 0]>, <99, 14, 25, 11, 7, 0, 1, [1, 1, 0, 0, 0, 0, 0, 0]>, <100, 15, 26, 11, 7, 0, 1, [1, 1, 0, 0, 0, 0, 0, 0]>, <101, 20, 31, 11, 7, 0, 1, [1, 1, 0, 0, 0, 0, 0, 0]>, <102, 21, 32, 11, 7, 0, 1, [1, 1, 0, 0, 0, 0, 0, 0]>, <103, 22, 33, 11, 7, 0, 1, [1, 1, 0, 0, 0, 0, 0, 0]>, <104, 23, 34, 11, 7, 0, 1, [1, 1, 0, 0, 0, 0, 0, 0]>, <105, 24, 35, 11, 7, 0, 1, [1, 1, 0, 0, 0, 0, 0, 0]>, <106, 5, 17, 12, 8, 0, 1, [1, 0, 0, 0, 0, 0, 0, 1]>, <107, 6, 18, 12, 8, 0, 1, [1, 0, 0, 0, 0, 0, 0, 1]>, <108, 14, 26, 12, 8, 0, 1, [1, 0, 0, 0, 0, 0, 0, 1]>, <109, 15, 27, 12, 8, 0, 1, [1, 0, 0, 0, 0, 0, 0, 1]>, <110, 19, 31, 12, 8, 0, 1, [1, 0, 0, 0, 0, 0, 0, 1]>, <111, 20, 32, 12, 8, 0, 1, [1, 0, 0, 0, 0, 0, 0, 1]>, <112, 21, 33, 12, 8, 0, 1, [1, 0, 0, 0, 0, 0, 0, 1]>, <113, 22, 34, 12, 8, 0, 1, [1, 0, 0, 0, 0, 0, 0, 1]>, <114, 23, 35, 12, 8, 0, 1, [1, 0, 0, 0, 0, 0, 0, 1]>, <115, 5, 17, 12, 9, 1, 0, [0, 0, 0, 0, 0, 1, 1, 0]>, <116, 6, 18, 12, 9, 1, 0, [0, 0, 0, 0, 0, 1, 1, 0]>, <117, 14, 26, 12, 9, 1, 0, [0, 0, 0, 0, 0, 1, 1, 0]>, <118, 15, 27, 12, 9, 1, 0, [0, 0, 0, 0, 0, 1, 1, 0]>, <119, 19, 31, 12, 9, 1, 0, [0, 0, 0, 0, 0, 1, 1, 0]>, <120, 20, 32, 12, 9, 1, 0, [0, 0, 0, 0, 0, 1, 1, 0]>, <121, 21, 33, 12, 9, 1, 0, [0, 0, 0, 0, 0, 1, 1, 0]>, <122, 22, 34, 12, 9, 1, 0, [0, 0, 0, 0, 0, 1, 1, 0]>, <123, 23, 35, 12, 9, 1, 0, [0, 0, 0, 0, 0, 1, 1, 0]>, <124, 3, 17, 14, 10, 0, 1, [1, 0, 0, 0, 0, 0, 0, 1]>, <125, 4, 18, 14, 10, 0, 1, [1, 0, 0, 0, 0, 0, 0, 1]>, <126, 5, 19, 14, 10, 0, 1, [1, 0, 0, 0, 0, 0, 0, 1]>, <127, 6, 20, 14, 10, 0, 1, [1, 0, 0, 0, 0, 0, 0, 1]>, <128, 12, 26, 14, 10, 0, 1, [1, 0, 0, 0, 0, 0, 0, 1]>, <129, 13, 27, 14, 10, 0, 1, [1, 0, 0, 0, 0, 0, 0, 1]>, <130, 14, 28, 14, 10, 0, 1, [1, 0, 0, 0, 0, 0, 0, 1]>, <131, 15, 29, 14, 10, 0, 1, [1, 0, 0, 0, 0, 0, 0, 1]>, <132, 17, 31, 14, 10, 0, 1, [1, 0, 0, 0, 0, 0, 0, 1]>, <133, 18, 32, 14, 10, 0, 1, [1, 0, 0, 0, 0, 0, 0, 1]>, <134, 19, 33, 14, 10, 0, 1, [1, 0, 0, 0, 0, 0, 0, 1]>, <135, 20, 34, 14, 10, 0, 1, [1, 0, 0, 0, 0, 0, 0, 1]>, <136, 21, 35, 14, 10, 0, 1, [1, 0, 0, 0, 0, 0, 0, 1]>, <137, 3, 17, 14, 11, 0, 1, [0, 0, 1, 1, 0, 0, 0, 0]>, <138, 4, 18, 14, 11, 0, 1, [0, 0, 1, 1, 0, 0, 0, 0]>, <139, 5, 19, 14, 11, 0, 1, [0, 0, 1, 1, 0, 0, 0, 0]>, <140, 6, 20, 14, 11, 0, 1, [0, 0, 1, 1, 0, 0, 0, 0]>, <141, 12, 26, 14, 11, 0, 1, [0, 0, 1, 1, 0, 0, 0, 0]>, <142, 13, 27, 14, 11, 0, 1, [0, 0, 1, 1, 0, 0, 0, 0]>, <143, 14, 28, 14, 11, 0, 1, [0, 0, 1, 1, 0, 0, 0, 0]>, <144, 15, 29, 14, 11, 0, 1, [0, 0, 1, 1, 0, 0, 0, 0]>, <145, 17, 31, 14, 11, 0, 1, [0, 0, 1, 1, 0, 0, 0, 0]>, <146, 18, 32, 14, 11, 0, 1, [0, 0, 1, 1, 0, 0, 0, 0]>, <147, 19, 33, 14, 11, 0, 1, [0, 0, 1, 1, 0, 0, 0, 0]>, <148, 20, 34, 14, 11, 0, 1, [0, 0, 1, 1, 0, 0, 0, 0]>, <149, 21, 35, 14, 11, 0, 1, [0, 0, 1, 1, 0, 0, 0, 0]>, <150, 5, 16, 11, 12, 1, 0, [1, 0, 0, 0, 0, 0, 0, 1]>, <151, 6, 17, 11, 12, 1, 0, [1, 0, 0, 0, 0, 0, 0, 1]>, <152, 14, 25, 11, 12, 1, 0, [1, 0, 0, 0, 0, 0, 0, 1]>, <153, 15, 26, 11, 12, 1, 0, [1, 0, 0, 0, 0, 0, 0, 1]>, <154, 20, 31, 11, 12, 1, 0, [1, 0, 0, 0, 0, 0, 0, 1]>, <155, 21, 32, 11, 12, 1, 0, [1, 0, 0, 0, 0, 0, 0, 1]>, <156, 22, 33, 11, 12, 1, 0, [1, 0, 0, 0, 0, 0, 0, 1]>, <157, 23, 34, 11, 12, 1, 0, [1, 0, 0, 0, 0, 0, 0, 1]>, <158, 24, 35, 11, 12, 1, 0, [1, 0, 0, 0, 0, 0, 0, 1]>, <159, 2, 17, 15, 13, 0, 0, [0, 0, 0, 0, 0, 1, 1, 0]>, <160, 3, 18, 15, 13, 0, 0, [0, 0, 0, 0, 0, 1, 1, 0]>, <161, 4, 19, 15, 13, 0, 0, [0, 0, 0, 0, 0, 1, 1, 0]>, <162, 5, 20, 15, 13, 0, 0, [0, 0, 0, 0, 0, 1, 1, 0]>, <163, 6, 21, 15, 13, 0, 0, [0, 0, 0, 0, 0, 1, 1, 0]>, <164, 11, 26, 15, 13, 0, 0, [0, 0, 0, 0, 0, 1, 1, 0]>, <165, 12, 27, 15, 13, 0, 0, [0, 0, 0, 0, 0, 1, 1, 0]>, <166, 13, 28, 15, 13, 0, 0, [0, 0, 0, 0, 0, 1, 1, 0]>, <167, 14, 29, 15, 13, 0, 0, [0, 0, 0, 0, 0, 1, 1, 0]>, <168, 15, 30, 15, 13, 0, 0, [0, 0, 0, 0, 0, 1, 1, 0]>, <169, 16, 31, 15, 13, 0, 0, [0, 0, 0, 0, 0, 1, 1, 0]>, <170, 17, 32, 15, 13, 0, 0, [0, 0, 0, 0, 0, 1, 1, 0]>, <171, 18, 33, 15, 13, 0, 0, [0, 0, 0, 0, 0, 1, 1, 0]>, <172, 19, 34, 15, 13, 0, 0, [0, 0, 0, 0, 0, 1, 1, 0]>, <173, 20, 35, 15, 13, 0, 0, [0, 0, 0, 0, 0, 1, 1, 0]>, <174, 4, 17, 13, 14, 1, 0, [1, 0, 0, 0, 0, 0, 0, 1]>, <175, 5, 18, 13, 14, 1, 0, [1, 0, 0, 0, 0, 0, 0, 1]>, <176, 6, 19, 13, 14, 1, 0, [1, 0, 0, 0, 0, 0, 0, 1]>, <177, 13, 26, 13, 14, 1, 0, [1, 0, 0, 0, 0, 0, 0, 1]>, <178, 14, 27, 13, 14, 1, 0, [1, 0, 0, 0, 0, 0, 0, 1]>, <179, 15, 28, 13, 14, 1, 0, [1, 0, 0, 0, 0, 0, 0, 1]>, <180, 18, 31, 13, 14, 1, 0, [1, 0, 0, 0, 0, 0, 0, 1]>, <181, 19, 32, 13, 14, 1, 0, [1, 0, 0, 0, 0, 0, 0, 1]>, <182, 20, 33, 13, 14, 1, 0, [1, 0, 0, 0, 0, 0, 0, 1]>, <183, 21, 34, 13, 14, 1, 0, [1, 0, 0, 0, 0, 0, 0, 1]>, <184, 22, 35, 13, 14, 1, 0, [1, 0, 0, 0, 0, 0, 0, 1]>, <185, 5, 16, 11, 15, 0, 0, [1, 0, 0, 0, 0, 0, 0, 1]>, <186, 6, 17, 11, 15, 0, 0, [1, 0, 0, 0, 0, 0, 0, 1]>, <187, 14, 25, 11, 15, 0, 0, [1, 0, 0, 0, 0, 0, 0, 1]>, <188, 15, 26, 11, 15, 0, 0, [1, 0, 0, 0, 0, 0, 0, 1]>, <189, 20, 31, 11, 15, 0, 0, [1, 0, 0, 0, 0, 0, 0, 1]>, <190, 21, 32, 11, 15, 0, 0, [1, 0, 0, 0, 0, 0, 0, 1]>, <191, 22, 33, 11, 15, 0, 0, [1, 0, 0, 0, 0, 0, 0, 1]>, <192, 23, 34, 11, 15, 0, 0, [1, 0, 0, 0, 0, 0, 0, 1]>, <193, 24, 35, 11, 15, 0, 0, [1, 0, 0, 0, 0, 0, 0, 1]>, <194, 5, 17, 12, 16, 0, 0, [1, 1, 0, 0, 0, 0, 0, 0]>, <195, 6, 18, 12, 16, 0, 0, [1, 1, 0, 0, 0, 0, 0, 0]>, <196, 14, 26, 12, 16, 0, 0, [1, 1, 0, 0, 0, 0, 0, 0]>, <197, 15, 27, 12, 16, 0, 0, [1, 1, 0, 0, 0, 0, 0, 0]>, <198, 19, 31, 12, 16, 0, 0, [1, 1, 0, 0, 0, 0, 0, 0]>, <199, 20, 32, 12, 16, 0, 0, [1, 1, 0, 0, 0, 0, 0, 0]>, <200, 21, 33, 12, 16, 0, 0, [1, 1, 0, 0, 0, 0, 0, 0]>, <201, 22, 34, 12, 16, 0, 0, [1, 1, 0, 0, 0, 0, 0, 0]>, <202, 23, 35, 12, 16, 0, 0, [1, 1, 0, 0, 0, 0, 0, 0]>, <203, 5, 14, 9, 17, 0, 0, [0, 1, 1, 0, 0, 0, 0, 0]>, <204, 6, 15, 9, 17, 0, 0, [0, 1, 1, 0, 0, 0, 0, 0]>, <205, 14, 23, 9, 17, 0, 0, [0, 1, 1, 0, 0, 0, 0, 0]>, <206, 15, 24, 9, 17, 0, 0, [0, 1, 1, 0, 0, 0, 0, 0]>, <207, 22, 31, 9, 17, 0, 0, [0, 1, 1, 0, 0, 0, 0, 0]>, <208, 23, 32, 9, 17, 0, 0, [0, 1, 1, 0, 0, 0, 0, 0]>, <209, 24, 33, 9, 17, 0, 0, [0, 1, 1, 0, 0, 0, 0, 0]>, <210, 5, 14, 9, 18, 0, 0, [0, 0, 0, 1, 1, 0, 0, 0]>, <211, 6, 15, 9, 18, 0, 0, [0, 0, 0, 1, 1, 0, 0, 0]>, <212, 14, 23, 9, 18, 0, 0, [0, 0, 0, 1, 1, 0, 0, 0]>, <213, 15, 24, 9, 18, 0, 0, [0, 0, 0, 1, 1, 0, 0, 0]>, <214, 22, 31, 9, 18, 0, 0, [0, 0, 0, 1, 1, 0, 0, 0]>, <215, 23, 32, 9, 18, 0, 0, [0, 0, 0, 1, 1, 0, 0, 0]>, <216, 24, 33, 9, 18, 0, 0, [0, 0, 0, 1, 1, 0, 0, 0]>, <217, 3, 17, 14, 19, 1, 0, [0, 0, 0, 0, 1, 1, 0, 0]>, <218, 4, 18, 14, 19, 1, 0, [0, 0, 0, 0, 1, 1, 0, 0]>, <219, 5, 19, 14, 19, 1, 0, [0, 0, 0, 0, 1, 1, 0, 0]>, <220, 6, 20, 14, 19, 1, 0, [0, 0, 0, 0, 1, 1, 0, 0]>, <221, 12, 26, 14, 19, 1, 0, [0, 0, 0, 0, 1, 1, 0, 0]>, <222, 13, 27, 14, 19, 1, 0, [0, 0, 0, 0, 1, 1, 0, 0]>, <223, 14, 28, 14, 19, 1, 0, [0, 0, 0, 0, 1, 1, 0, 0]>, <224, 15, 29, 14, 19, 1, 0, [0, 0, 0, 0, 1, 1, 0, 0]>, <225, 17, 31, 14, 19, 1, 0, [0, 0, 0, 0, 1, 1, 0, 0]>, <226, 18, 32, 14, 19, 1, 0, [0, 0, 0, 0, 1, 1, 0, 0]>, <227, 19, 33, 14, 19, 1, 0, [0, 0, 0, 0, 1, 1, 0, 0]>, <228, 20, 34, 14, 19, 1, 0, [0, 0, 0, 0, 1, 1, 0, 0]>, <229, 21, 35, 14, 19, 1, 0, [0, 0, 0, 0, 1, 1, 0, 0]>, <230, 5, 17, 12, 20, 0, 0, [0, 0, 1, 1, 0, 0, 0, 0]>, <231, 6, 18, 12, 20, 0, 0, [0, 0, 1, 1, 0, 0, 0, 0]>, <232, 14, 26, 12, 20, 0, 0, [0, 0, 1, 1, 0, 0, 0, 0]>, <233, 15, 27, 12, 20, 0, 0, [0, 0, 1, 1, 0, 0, 0, 0]>, <234, 19, 31, 12, 20, 0, 0, [0, 0, 1, 1, 0, 0, 0, 0]>, <235, 20, 32, 12, 20, 0, 0, [0, 0, 1, 1, 0, 0, 0, 0]>, <236, 21, 33, 12, 20, 0, 0, [0, 0, 1, 1, 0, 0, 0, 0]>, <237, 22, 34, 12, 20, 0, 0, [0, 0, 1, 1, 0, 0, 0, 0]>, <238, 23, 35, 12, 20, 0, 0, [0, 0, 1, 1, 0, 0, 0, 0]>, <239, 4, 17, 13, 21, 0, 0, [0, 0, 1, 1, 0, 0, 0, 0]>, <240, 5, 18, 13, 21, 0, 0, [0, 0, 1, 1, 0, 0, 0, 0]>, <241, 6, 19, 13, 21, 0, 0, [0, 0, 1, 1, 0, 0, 0, 0]>, <242, 13, 26, 13, 21, 0, 0, [0, 0, 1, 1, 0, 0, 0, 0]>, <243, 14, 27, 13, 21, 0, 0, [0, 0, 1, 1, 0, 0, 0, 0]>, <244, 15, 28, 13, 21, 0, 0, [0, 0, 1, 1, 0, 0, 0, 0]>, <245, 18, 31, 13, 21, 0, 0, [0, 0, 1, 1, 0, 0, 0, 0]>, <246, 19, 32, 13, 21, 0, 0, [0, 0, 1, 1, 0, 0, 0, 0]>, <247, 20, 33, 13, 21, 0, 0, [0, 0, 1, 1, 0, 0, 0, 0]>, <248, 21, 34, 13, 21, 0, 0, [0, 0, 1, 1, 0, 0, 0, 0]>, <249, 22, 35, 13, 21, 0, 0, [0, 0, 1, 1, 0, 0, 0, 0]>};
